NAME: random-66-1759
TYPE: TSP
COMMENT: size=66 seed=1759
DIMENSION: 134
EDGE_WEIGHT_TYPE: EUC_2D
NODE_COORD_SECTION
+0 513 534
-0 513 534
+1 631 353
-1 842 884
+2 39 463
-2 882 524
+3 161 58
-3 315 420
+4 733 900
-4 482 809
+5 79 695
-5 839 671
+6 304 25
-6 974 952
+7 387 514
-7 776 954
+8 341 952
-8 572 128
+9 597 581
-9 740 765
+10 155 32
-10 950 749
+11 653 286
-11 235 337
+12 333 714
-12 603 647
+13 926 995
-13 755 986
+14 931 798
-14 717 795
+15 621 605
-15 215 249
+16 414 831
-16 747 799
+17 503 684
-17 822 854
+18 876 138
-18 178 874
+19 32 888
-19 242 733
+20 253 6
-20 942 389
+21 434 776
-21 830 711
+22 883 568
-22 422 271
+23 96 844
-23 535 858
+24 16 223
-24 411 986
+25 844 342
-25 354 941
+26 293 487
-26 426 797
+27 966 364
-27 271 877
+28 630 623
-28 912 975
+29 971 863
-29 433 545
+30 820 262
-30 611 56
+31 396 256
-31 864 236
+32 808 132
-32 658 573
+33 430 562
-33 487 885
+34 792 835
-34 585 770
+35 224 769
-35 376 43
+36 881 417
-36 657 890
+37 644 781
-37 796 952
+38 118 24
-38 619 675
+39 717 25
-39 724 70
+40 912 868
-40 519 451
+41 939 204
-41 730 493
+42 892 819
-42 724 667
+43 703 747
-43 721 436
+44 535 342
-44 938 173
+45 957 338
-45 414 315
+46 11 649
-46 299 809
+47 824 222
-47 580 529
+48 633 99
-48 512 295
+49 447 885
-49 877 218
+50 679 860
-50 670 898
+51 669 909
-51 754 159
+52 664 307
-52 669 146
+53 397 289
-53 195 223
+54 296 569
-54 911 24
+55 239 631
-55 547 226
+56 815 781
-56 788 476
+57 907 495
-57 467 485
+58 814 988
-58 621 71
+59 700 137
-59 402 136
+60 270 214
-60 111 608
+61 543 334
-61 305 282
+62 468 881
-62 949 595
+63 352 210
-63 142 493
+64 677 370
-64 462 889
+65 859 546
-65 429 99
+66 190 28
-66 714 715
PRECEDENCE_SECTION
+0 -0
+1 -1
+2 -2
+3 -3
+4 -4
+5 -5
+6 -6
+7 -7
+8 -8
+9 -9
+10 -10
+11 -11
+12 -12
+13 -13
+14 -14
+15 -15
+16 -16
+17 -17
+18 -18
+19 -19
+20 -20
+21 -21
+22 -22
+23 -23
+24 -24
+25 -25
+26 -26
+27 -27
+28 -28
+29 -29
+30 -30
+31 -31
+32 -32
+33 -33
+34 -34
+35 -35
+36 -36
+37 -37
+38 -38
+39 -39
+40 -40
+41 -41
+42 -42
+43 -43
+44 -44
+45 -45
+46 -46
+47 -47
+48 -48
+49 -49
+50 -50
+51 -51
+52 -52
+53 -53
+54 -54
+55 -55
+56 -56
+57 -57
+58 -58
+59 -59
+60 -60
+61 -61
+62 -62
+63 -63
+64 -64
+65 -65
+66 -66
EOF
